c 
c G(k,n,p) graph
c graph gen seed     : 1354
c number of vertices : 25
c max number of edges: 500
c number of classes  : 2
c edge density       : 0.600000
c edge probability   : 1.200000
c data structure     : dense
c
c           Graph Stats
c number of vertices  : 25
c nonisolated vertices: 25
c number of edges     : 150
c edge density        : 0.500000
c max degree          : 15
c avg degree          : 12.00
c min degree          : 10
p col 25 150
e 1 4
e 1 5
e 1 6
e 1 9
e 1 13
e 1 14
e 1 18
e 1 19
e 1 23
e 1 25
e 2 4
e 2 5
e 2 6
e 2 9
e 2 13
e 2 14
e 2 18
e 2 19
e 2 23
e 2 25
e 3 4
e 3 5
e 3 6
e 3 9
e 3 13
e 3 14
e 3 18
e 3 19
e 3 23
e 3 25
e 4 7
e 4 8
e 4 10
e 4 11
e 4 12
e 4 15
e 4 16
e 4 17
e 4 20
e 4 21
e 4 22
e 4 24
e 5 7
e 5 8
e 5 10
e 5 11
e 5 12
e 5 15
e 5 16
e 5 17
e 5 20
e 5 21
e 5 22
e 5 24
e 6 7
e 6 8
e 6 10
e 6 11
e 6 12
e 6 15
e 6 16
e 6 17
e 6 20
e 6 21
e 6 22
e 6 24
e 7 9
e 7 13
e 7 14
e 7 18
e 7 19
e 7 23
e 7 25
e 8 9
e 8 13
e 8 14
e 8 18
e 8 19
e 8 23
e 8 25
e 9 10
e 9 11
e 9 12
e 9 15
e 9 16
e 9 17
e 9 20
e 9 21
e 9 22
e 9 24
e 10 13
e 10 14
e 10 18
e 10 19
e 10 23
e 10 25
e 11 13
e 11 14
e 11 18
e 11 19
e 11 23
e 11 25
e 12 13
e 12 14
e 12 18
e 12 19
e 12 23
e 12 25
e 13 15
e 13 16
e 13 17
e 13 20
e 13 21
e 13 22
e 13 24
e 14 15
e 14 16
e 14 17
e 14 20
e 14 21
e 14 22
e 14 24
e 15 18
e 15 19
e 15 23
e 15 25
e 16 18
e 16 19
e 16 23
e 16 25
e 17 18
e 17 19
e 17 23
e 17 25
e 18 20
e 18 21
e 18 22
e 18 24
e 19 20
e 19 21
e 19 22
e 19 24
e 20 23
e 20 25
e 21 23
e 21 25
e 22 23
e 22 25
e 23 24
e 24 25
